\ LP format - for model browsing. Use MPS format to capture full model detail.
Minimize
  800 y_0 + 800 y_1 + 800 y_2 + 800 y_3 + 800 y_4 + 800 y_5 + 800 y_6
   + 800 y_7 + 800 y_8 + 800 y_9 + 800 y_10 + 800 y_11 + 800 y_12
   + 800 y_13 + 800 y_14 + 800 y_15 + 800 y_16 + 800 y_17 + 800 y_18
   + 800 y_19 + 800 y_20 + 800 y_21 + 800 y_22 + 800 y_23 + 800 y_24
   + 800 y_25 + 800 y_26 + 800 y_27 + 800 y_28 + 800 y_29 + 800 y_30
   + 800 y_31 + 800 y_32 + 800 y_33 + 800 y_34 + 800 y_35 + 800 y_36
   + 800 y_37 + 800 y_38 + 800 y_39 + 800 y_40 + 800 y_41 + 800 y_42
   + 800 y_43 + 800 y_44 + 800 y_45 + 800 y_46 + 800 y_47 + 800 y_48
   + 800 y_49 + 800 y_50 + 800 y_51 + 800 y_52 + 800 y_53 + 800 y_54
   + 800 y_55 + 800 y_56 + 800 y_57 + 800 y_58 + 800 y_59 + 800 y_60
   + 800 y_61 + 800 y_62 + 800 y_63 + 800 y_64 + 800 y_65 + 800 y_66
   + 800 y_67 + 800 y_68 + 800 y_69 + 800 y_70 + 800 y_71 + 800 y_72
   + 800 y_73 + 800 y_74 + 800 y_75 + 800 y_76 + 800 y_77 + 800 y_78
   + 800 y_79 + 800 y_80 + 800 y_81 + 800 y_82 + 800 y_83 + 800 y_84
   + 800 y_85 + 800 y_86 + 800 y_87 + 800 y_88 + 800 y_89 + 800 y_90
   + 800 y_91 + 800 y_92 + 800 y_93 + 800 y_94 + 8 x_10 + 8 x_11 + 304 x_12
   + 304 x_13 + 4 x_14 + 606 x_15 + 601 x_16 + x_17 + 1056 x_18 + 155 x_19
   + 157 x_20 + 351 x_21 + x_22 + 6 x_23 + 7 x_24 + 1055 x_25 + 1055 x_26
   + x_27 + 695 x_28 + 1542 x_29 + 304 x_30 + 1590 x_31 + 454 x_32
   + 356 x_33 + 453 x_34 + 5 x_35 + 1206 x_36 + 195 x_37 + 57 x_38 + x_39
   + 1055 x_40 + 2045 x_41 + 1659 x_42 + 487 x_43 + 2 x_44 + 903 x_45
   + 953 x_46 + x_47 + 905 x_48 + 4 x_49 + 487 x_50 + 1053 x_51 + 1407 x_52
   + 935 x_53 + 935 x_54 + 56 x_55 + 56 x_56 + 1101 x_57 + x_58 + 1677 x_59
   + 1403 x_60 + 2705 x_61 + 4 x_62 + 4 x_63 + 2 x_64 + 2 x_65 + 2 x_66
   + 2 x_67 + 2044 x_68 + 600 x_69 + 3 x_70 + 255 x_71 + 4 x_72 + 4 x_73
   + 1053 x_74 + 2007 x_75 + 7 x_76 + 42 x_77 + 6 x_78 + 6 x_79 + 606 x_80
   + 6 x_81 + 8 x_82 + 4 x_83 + 4 x_84 + 606 x_85 + 608 x_86 + 5 x_87
   + 5 x_88 + 156 x_89 + 754 x_90 + 4 x_91 + 5 x_92 + 745 x_93 + 756 x_94
   + 5 x_95 + 5 x_96 + 1344 x_97 + 1358 x_98 + 257 x_99 + 292 x_100
   + 1007 x_102 + 144 x_103 + 257 x_104 + 1303 x_105 + 1053 x_106 + 5 x_107
   + 2 x_108 + 244 x_109 + 603 x_110 + 605 x_111 + 3 x_112 + 5 x_113
   + 351 x_114 + 353 x_115 + 2151 x_116 + 2153 x_117 + 6 x_118 + 4 x_119
   + 1200 x_120 + 4 x_121 + 6 x_122 + 253 x_123 + 755 x_124 + 1653 x_125
   + 1657 x_126 + 627 x_127 + 2 x_128 + 956 x_129 + 1088 x_130 + 3 x_131
   + 705 x_132 + 646 x_133 + 1226 x_134 + 1038 x_135 + 1455 x_136
   + 1455 x_137 + 155 x_138 + 797 x_139 + 534 x_140 + 535 x_141
   + 1415 x_142 + 1416 x_143 + 2218 x_144 + 195 x_145 + 195 x_146
   + 196 x_147 + 196 x_148 + 1203 x_149 + 5 x_150 + 847 x_151 + 888 x_152
   + 354 x_153 + 956 x_154 + 3 x_155 + 805 x_156 + 1066 x_157 + 1074 x_158
   + 1663 x_159 + 6 x_160 + 606 x_161 + 455 x_162 + 457 x_163 + 154 x_164
   + 154 x_165 + 306 x_166 + 306 x_167 + 602 x_168 + 153 x_169 + 559 x_170
   + 346 x_171 + 605 x_172 + 5 x_173 + 2 x_174 + 603 x_175 + 503 x_176
   + 1305 x_177 + 538 x_178 + 605 x_179 + 6 x_180 + 4 x_181 + 4 x_182
   + 955 x_183 + 154 x_184 + 196 x_185 + 196 x_186 + 1596 x_187 + 5 x_188
   + 1204 x_189 + 134 x_190 + 1202 x_191 + 1055 x_192 + 1405 x_193
   + 647 x_194 + 647 x_195 + 1247 x_196 + 1206 x_197 + 5 x_198 + 5 x_199
   + 255 x_200 + 1066 x_201 + 1068 x_202 + 5 x_203 + 4 x_204 + 1665 x_205
   + 266 x_206 + 1181 x_207 + 646 x_208 + 648 x_209 + 2235 x_210 + 5 x_211
   + 1203 x_212 + 5 x_213 + 4 x_214 + 606 x_215 + 606 x_216 + 145 x_217
   + 1104 x_218 + 145 x_219 + 395 x_220 + 266 x_221
Subject To
 cover_lg_0: y_0 + x_0 + x_8 + x_9 = 1
 cover_lg_1: y_1 + x_0 + x_8 + x_9 + x_17 + x_27 + x_29 + x_87 + x_91
   + x_92 + x_93 = 1
 cover_lg_2: y_2 + x_0 + x_9 + x_13 + x_18 + x_28 + x_30 + x_34 + x_66 = 1
 cover_lg_3: y_3 + x_0 + x_9 + x_13 + x_18 + x_28 + x_30 + x_34 + x_66 = 1
 cover_lg_4: y_4 + x_0 + x_14 + x_19 + x_32 + x_35 + x_37 + x_47 + x_70
   + x_112 + x_121 + x_131 + x_133 + x_134 + x_135 + x_138 + x_139 + x_143
   + x_150 + x_155 + x_157 + x_158 + x_159 + x_162 + x_169 + x_176 + x_194
   + x_195 + x_196 + x_198 + x_199 + x_201 + x_202 + x_205 + x_208 + x_209
   + x_210 + x_213 + x_214 + x_216 + x_217 + x_219 = 1
 cover_lg_5: y_5 + x_0 + x_14 + x_32 + x_35 + x_67 = 1
 cover_lg_6: y_6 + x_0 = 1
 cover_lg_7: y_7 + x_0 = 1
 cover_lg_8: y_8 + x_1 + x_10 + x_11 + x_23 + x_24 + x_28 + x_53 + x_54
   + x_59 + x_62 + x_63 + x_73 + x_81 + x_82 + x_133 + x_134 + x_135
   + x_138 + x_139 + x_153 + x_157 + x_160 + x_164 + x_165 + x_166 + x_167
   + x_169 + x_170 + x_180 + x_184 + x_190 + x_202 + x_203 + x_206 + x_209
   + x_211 + x_214 + x_221 = 1
 cover_lg_9: y_9 + x_1 + x_21 + x_77 + x_89 + x_90 + x_102 + x_106 + x_114
   + x_115 + x_145 + x_146 + x_147 + x_148 + x_151 + x_153 + x_154 + x_155
   + x_156 + x_164 + x_165 + x_166 + x_167 + x_170 + x_184 + x_203 + x_211
   = 1
 cover_lg_10: y_10 + x_1 + x_53 + x_54 + x_57 + x_59 + x_60 + x_77 + x_89
   + x_90 + x_102 + x_106 + x_136 + x_137 + x_145 + x_146 + x_147 + x_148
   + x_151 + x_153 + x_154 + x_155 + x_156 + x_164 + x_165 + x_166 + x_167
   + x_170 + x_184 + x_193 + x_218 = 1
 cover_lg_11: y_11 + x_1 + x_140 = 1
 cover_lg_12: y_12 + x_1 + x_140 = 1
 cover_lg_13: y_13 + x_1 + x_10 + x_11 + x_31 + x_43 + x_53 + x_54 + x_62
   + x_63 + x_76 + x_81 + x_82 + x_87 + x_88 + x_93 + x_94 + x_99 + x_107
   + x_118 + x_127 + x_133 + x_140 + x_145 + x_146 + x_152 + x_153 + x_157
   + x_160 + x_164 + x_165 + x_171 + x_173 + x_178 + x_180 + x_184 + x_188
   + x_190 + x_194 + x_195 + x_198 + x_201 + x_202 + x_203 + x_208 + x_209
   + x_211 + x_213 + x_214 + x_217 + x_221 = 1
 cover_lg_14: y_14 + x_2 + x_32 + x_33 + x_64 + x_65 + x_100 + x_101
   + x_108 + x_109 + x_119 + x_128 + x_129 + x_132 + x_158 + x_162 + x_163
   + x_174 + x_181 + x_182 + x_204 = 1
 cover_lg_15: y_15 + x_2 + x_32 + x_33 + x_34 + x_35 + x_64 + x_65 + x_100
   + x_101 + x_108 + x_109 + x_119 + x_128 + x_129 + x_132 + x_158 + x_162
   + x_163 + x_174 + x_181 + x_182 + x_204 = 1
 cover_lg_16: y_16 + x_2 + x_12 + x_15 + x_22 + x_100 + x_101 = 1
 cover_lg_17: y_17 + x_2 + x_12 + x_15 + x_45 + x_46 + x_48 + x_52 + x_100
   + x_101 + x_115 + x_183 + x_203 + x_211 = 1
 cover_lg_18: y_18 + x_2 + x_12 + x_15 + x_45 + x_46 + x_48 + x_52 + x_100
   + x_101 + x_115 + x_183 + x_203 + x_211 = 1
 cover_lg_19: y_19 + x_2 + x_12 + x_15 + x_45 + x_46 + x_48 + x_52 + x_100
   + x_101 + x_183 + x_203 + x_211 = 1
 cover_lg_20: y_20 + x_2 + x_12 + x_32 + x_45 + x_64 + x_65 + x_83 + x_84
   + x_89 + x_90 + x_101 + x_108 + x_128 + x_134 + x_142 + x_147 + x_148
   + x_158 + x_166 + x_167 + x_172 + x_174 + x_183 + x_211 = 1
 cover_lg_21: y_21 + x_2 + x_12 + x_32 + x_45 + x_64 + x_65 + x_83 + x_84
   + x_89 + x_90 + x_101 + x_108 + x_128 + x_134 + x_142 + x_147 + x_148
   + x_158 + x_166 + x_167 + x_172 + x_174 + x_183 + x_211 = 1
 cover_lg_22: y_22 + x_2 + x_12 + x_32 + x_33 + x_45 + x_55 + x_56 + x_64
   + x_65 + x_78 + x_79 + x_83 + x_84 + x_89 + x_95 + x_96 + x_100 + x_101
   + x_108 + x_109 + x_119 + x_128 + x_129 + x_134 + x_135 + x_142 + x_147
   + x_148 + x_158 + x_166 + x_167 + x_174 + x_181 + x_182 + x_185 + x_186
   + x_204 = 1
 cover_lg_23: y_23 + x_3 + x_13 + x_14 + x_66 + x_67 = 1
 cover_lg_24: y_24 + x_3 + x_10 + x_11 + x_12 + x_14 + x_19 + x_20 + x_23
   + x_24 + x_26 + x_82 + x_202 + x_209 = 1
 cover_lg_25: y_25 + x_3 + x_10 + x_11 + x_12 + x_14 + x_19 + x_20 + x_23
   + x_24 + x_26 + x_82 + x_202 + x_209 = 1
 cover_lg_26: y_26 + x_3 + x_11 + x_36 + x_38 + x_42 + x_56 + x_61 + x_87
   + x_88 + x_149 + x_189 + x_191 + x_197 = 1
 cover_lg_27: y_27 + x_3 + x_11 + x_36 + x_38 + x_42 + x_56 + x_61 + x_87
   + x_88 + x_149 + x_189 + x_191 + x_197 = 1
 cover_lg_28: y_28 + x_3 + x_10 + x_11 + x_20 + x_31 + x_36 + x_38 + x_40
   + x_42 + x_68 + x_71 + x_75 + x_76 + x_78 + x_80 + x_81 + x_82 + x_85
   + x_86 + x_94 + x_95 + x_98 + x_99 + x_102 + x_104 + x_118 + x_122
   + x_160 + x_161 + x_163 + x_170 + x_171 + x_178 + x_180 + x_187 + x_197
   = 1
 cover_lg_29: y_29 + x_3 + x_10 + x_11 + x_20 + x_31 + x_36 + x_38 + x_40
   + x_42 + x_68 + x_71 + x_75 + x_76 + x_78 + x_80 + x_81 + x_82 + x_85
   + x_86 + x_94 + x_95 + x_98 + x_99 + x_102 + x_104 + x_118 + x_122
   + x_160 + x_161 + x_163 + x_170 + x_171 + x_178 + x_180 + x_187 + x_190
   + x_197 = 1
 cover_lg_30: y_30 + x_3 + x_10 + x_11 + x_20 + x_38 + x_40 + x_42 + x_43
   + x_48 + x_50 + x_71 + x_107 + x_109 + x_110 + x_111 + x_113 + x_118
   + x_122 + x_127 + x_129 + x_130 + x_132 + x_133 + x_135 + x_139 + x_144
   + x_151 + x_156 + x_160 + x_161 + x_163 + x_170 + x_171 + x_177 + x_178
   + x_180 + x_187 + x_190 + x_194 + x_195 + x_196 + x_197 + x_200 + x_208
   + x_209 + x_210 + x_220 = 1
 cover_lg_31: y_31 + x_3 + x_10 + x_11 + x_43 + x_50 + x_107 + x_109
   + x_110 + x_111 + x_118 + x_127 + x_129 + x_130 + x_133 + x_135 + x_160
   + x_161 + x_171 + x_178 + x_180 + x_187 + x_190 + x_194 + x_195 + x_196
   + x_197 + x_198 + x_207 + x_208 + x_209 + x_210 + x_213 + x_214 + x_216
   + x_217 = 1
 cover_lg_32: y_32 + x_3 = 1
 cover_lg_33: y_33 + x_3 = 1
 cover_lg_34: y_34 + x_15 + x_16 + x_36 + x_46 + x_57 + x_68 + x_69 + x_80
   + x_85 + x_86 + x_90 + x_97 + x_98 + x_102 + x_110 + x_111 + x_120
   + x_130 + x_136 + x_137 + x_149 + x_154 + x_159 + x_161 + x_168 + x_172
   + x_175 + x_179 + x_183 + x_187 + x_189 + x_191 + x_196 + x_197 + x_205
   + x_210 + x_212 + x_215 + x_216 + x_218 = 1
 cover_lg_35: y_35 + x_29 + x_36 + x_37 + x_38 + x_41 + x_42 + x_45 + x_46
   + x_48 + x_52 + x_53 + x_54 + x_55 + x_56 + x_57 + x_59 + x_60 + x_61
   + x_120 + x_125 + x_126 + x_136 + x_137 + x_149 + x_183 + x_185 + x_186
   + x_187 + x_189 + x_191 + x_193 + x_197 + x_210 + x_212 + x_218 = 1
 cover_lg_36: y_36 + x_36 + x_37 + x_38 + x_41 + x_42 + x_55 + x_56 + x_61
   + x_88 + x_99 + x_103 + x_104 + x_120 + x_125 + x_126 + x_127 + x_149
   + x_173 + x_185 + x_186 + x_187 + x_189 + x_191 + x_197 + x_210 + x_212
   + x_217 + x_219 + x_220 = 1
 cover_lg_37: y_37 + x_31 + x_40 + x_53 + x_54 + x_55 + x_57 + x_59 + x_63
   + x_65 + x_68 + x_69 + x_84 + x_89 + x_90 + x_99 + x_102 + x_104 + x_120
   + x_126 + x_145 + x_146 + x_147 + x_148 + x_164 + x_165 + x_166 + x_167
   + x_168 + x_170 + x_173 + x_184 + x_212 + x_218 = 1
 cover_lg_38: y_38 + x_57 + x_69 + x_83 + x_84 + x_89 + x_90 + x_93 + x_97
   + x_107 + x_108 + x_109 + x_110 + x_111 + x_113 + x_120 + x_133 + x_134
   + x_135 + x_139 + x_148 + x_157 + x_158 + x_159 + x_167 + x_168 + x_172
   + x_173 + x_174 + x_175 + x_194 + x_195 + x_196 + x_201 + x_202 + x_205
   + x_208 + x_209 + x_210 = 1
 cover_lg_39: y_39 + x_15 + x_46 + x_52 + x_57 + x_68 + x_69 + x_75 + x_100
   + x_120 + x_157 + x_159 + x_168 + x_173 + x_175 + x_191 + x_201 + x_202
   + x_203 + x_205 = 1
 cover_lg_40: y_40 + x_15 + x_46 + x_54 + x_57 + x_69 + x_93 + x_97 + x_100
   + x_120 + x_124 + x_146 + x_149 + x_157 + x_159 + x_165 + x_168 + x_173
   + x_175 + x_179 + x_191 + x_201 + x_202 + x_203 + x_205 = 1
 cover_lg_41: y_41 + x_15 + x_36 + x_46 + x_57 + x_68 + x_69 + x_80 + x_85
   + x_86 + x_90 + x_97 + x_98 + x_102 + x_110 + x_111 + x_120 + x_130
   + x_136 + x_137 + x_149 + x_154 + x_159 + x_161 + x_168 + x_172 + x_175
   + x_179 + x_183 + x_187 + x_189 + x_191 + x_196 + x_197 + x_205 + x_210
   + x_212 + x_215 + x_216 + x_218 = 1
 cover_lg_42: y_42 + x_4 + x_17 + x_78 + x_79 + x_95 + x_96 + x_112 + x_113
   + x_121 + x_122 + x_134 + x_135 + x_138 + x_139 + x_142 + x_143 + x_144
   + x_147 + x_148 + x_150 + x_151 + x_166 + x_167 + x_169 + x_170 + x_199
   + x_200 + x_219 + x_220 = 1
 cover_lg_43: y_43 + x_4 + x_43 + x_44 + x_49 + x_50 + x_72 + x_76 + x_77
   + x_78 + x_79 + x_107 + x_112 + x_113 + x_145 + x_146 + x_147 + x_148
   + x_150 + x_151 + x_188 + x_194 + x_195 + x_198 + x_199 + x_200 + x_213
   = 1
 cover_lg_44: y_44 + x_4 + x_16 + x_76 + x_78 + x_79 + x_80 + x_105 + x_131
   + x_133 + x_134 + x_135 + x_138 + x_139 + x_150 + x_157 + x_159 + x_160
   + x_161 + x_188 + x_195 = 1
 cover_lg_45: y_45 + x_4 + x_76 + x_78 + x_79 + x_80 + x_94 + x_95 + x_96
   + x_105 + x_118 + x_121 + x_122 + x_123 + x_131 + x_133 + x_134 + x_135
   + x_138 + x_139 + x_150 + x_157 + x_159 + x_160 + x_161 + x_188 + x_195
   + x_201 + x_208 = 1
 cover_lg_46: y_46 + x_4 + x_79 + x_182 + x_185 = 1
 cover_lg_47: y_47 + x_4 = 1
 cover_lg_48: y_48 + x_4 = 1
 cover_lg_49: y_49 + x_4 = 1
 cover_lg_50: y_50 + x_5 + x_12 + x_18 + x_19 + x_20 + x_45 + x_47 + x_48
   + x_70 + x_71 + x_89 + x_131 + x_155 + x_156 = 1
 cover_lg_51: y_51 + x_5 + x_12 + x_18 + x_19 + x_20 + x_45 + x_47 + x_48
   + x_70 + x_71 + x_89 + x_131 + x_155 + x_156 = 1
 cover_lg_52: y_52 + x_5 + x_43 + x_44 + x_47 + x_49 + x_50 + x_51 + x_81
   + x_85 + x_112 + x_169 + x_180 + x_194 + x_213 + x_214 = 1
 cover_lg_53: y_53 + x_5 + x_43 + x_47 + x_49 + x_50 + x_51 + x_81 + x_85
   + x_112 + x_169 + x_180 + x_194 + x_213 + x_214 = 1
 cover_lg_54: y_54 + x_5 + x_24 + x_33 + x_43 + x_50 + x_92 + x_127 + x_129
   + x_130 + x_132 + x_200 + x_220 = 1
 cover_lg_55: y_55 + x_5 + x_24 + x_33 + x_43 + x_50 + x_92 + x_127 + x_129
   + x_130 + x_132 + x_200 + x_220 = 1
 cover_lg_56: y_56 + x_5 + x_31 + x_33 + x_36 + x_76 + x_80 + x_81 + x_82
   + x_85 + x_86 + x_99 + x_102 + x_104 + x_152 + x_153 + x_154 = 1
 cover_lg_57: y_57 + x_5 + x_31 + x_33 + x_36 + x_76 + x_80 + x_81 + x_82
   + x_85 + x_86 + x_99 + x_102 + x_104 + x_152 + x_153 + x_154 = 1
 cover_lg_58: y_58 + x_5 = 1
 cover_lg_59: y_59 + x_21 + x_22 + x_114 + x_115 = 1
 cover_lg_60: y_60 + x_13 + x_15 + x_18 + x_25 + x_28 + x_30 + x_83 + x_84
   + x_86 + x_97 + x_98 + x_111 + x_130 + x_168 + x_172 + x_175 + x_179
   + x_190 + x_192 + x_196 + x_205 + x_206 + x_215 + x_216 + x_221 = 1
 cover_lg_61: y_61 + x_13 + x_15 + x_18 + x_25 + x_28 + x_30 + x_83 + x_84
   + x_86 + x_97 + x_98 + x_111 + x_130 + x_168 + x_172 + x_175 + x_179
   + x_192 + x_196 + x_205 + x_206 + x_215 + x_216 + x_221 = 1
 cover_lg_62: y_62 + x_62 + x_64 + x_67 + x_71 + x_75 + x_83 + x_93 + x_97
   + x_98 + x_107 + x_108 + x_109 + x_110 + x_111 + x_113 + x_119 + x_172
   + x_174 + x_175 + x_179 + x_215 + x_221 = 1
 cover_lg_63: y_63 + x_31 + x_40 + x_53 + x_54 + x_55 + x_59 + x_62 + x_63
   + x_64 + x_65 + x_68 + x_71 + x_75 + x_98 + x_99 + x_102 + x_104 + x_119
   + x_126 + x_145 + x_146 + x_147 + x_164 + x_165 + x_166 + x_170 + x_179
   + x_184 + x_212 + x_215 + x_218 + x_221 = 1
 cover_lg_64: y_64 + x_53 + x_54 + x_55 + x_56 + x_59 + x_62 + x_63 + x_87
   + x_88 + x_93 + x_96 + x_97 + x_119 + x_126 + x_145 + x_146 + x_149
   + x_164 + x_165 + x_179 + x_184 + x_186 + x_188 + x_189 + x_204 + x_212
   + x_215 + x_218 + x_221 = 1
 cover_lg_65: y_65 + x_53 + x_55 + x_56 + x_59 + x_62 + x_63 + x_79 + x_87
   + x_88 + x_96 + x_119 + x_126 + x_145 + x_164 + x_182 + x_184 + x_185
   + x_186 + x_188 + x_189 + x_204 + x_212 + x_215 + x_218 + x_221 = 1
 cover_lg_66: y_66 = 1
 cover_lg_67: y_67 = 1
 cover_lg_68: y_68 = 1
 cover_lg_69: y_69 + x_10 + x_14 + x_19 + x_20 + x_23 + x_24 + x_25 + x_26
   + x_32 + x_33 + x_35 + x_37 + x_41 + x_70 + x_72 + x_73 + x_74 + x_82
   + x_86 + x_91 + x_92 + x_103 + x_127 + x_128 + x_129 + x_130 + x_132
   + x_158 + x_162 + x_163 + x_181 + x_182 + x_185 + x_186 + x_187 + x_192
   + x_196 + x_198 + x_199 + x_200 + x_202 + x_204 + x_205 + x_206 + x_209
   + x_210 + x_216 + x_217 + x_219 + x_220 = 1
 cover_lg_70: y_70 + x_10 + x_14 + x_19 + x_20 + x_23 + x_24 + x_25 + x_26
   + x_32 + x_33 + x_35 + x_37 + x_41 + x_70 + x_72 + x_73 + x_74 + x_82
   + x_86 + x_91 + x_92 + x_103 + x_127 + x_128 + x_129 + x_130 + x_132
   + x_158 + x_162 + x_163 + x_181 + x_182 + x_185 + x_186 + x_187 + x_192
   + x_196 + x_198 + x_199 + x_200 + x_202 + x_204 + x_205 + x_206 + x_209
   + x_210 + x_216 + x_217 + x_219 + x_220 = 1
 cover_lg_71: y_71 + x_23 + x_25 + x_26 + x_39 + x_41 + x_49 + x_51 + x_58
   + x_60 + x_61 + x_72 + x_73 + x_74 + x_91 + x_103 + x_105 + x_106
   + x_116 + x_123 + x_125 + x_181 + x_192 + x_206 = 1
 cover_lg_72: y_72 + x_181 = 1
 cover_lg_73: y_73 = 1
 cover_lg_74: y_74 = 1
 cover_lg_75: y_75 + x_6 + x_31 + x_39 + x_40 + x_58 + x_140 + x_141
   + x_142 + x_143 + x_144 + x_152 + x_171 + x_178 + x_207 = 1
 cover_lg_76: y_76 + x_6 + x_31 + x_39 + x_40 + x_140 + x_141 + x_142
   + x_143 + x_144 + x_152 + x_178 = 1
 cover_lg_77: y_77 + x_6 + x_31 + x_39 + x_40 + x_140 + x_141 + x_142
   + x_143 + x_144 + x_152 + x_178 = 1
 cover_lg_78: y_78 + x_6 + x_31 + x_39 + x_40 + x_58 + x_140 + x_141
   + x_142 + x_143 + x_144 + x_152 + x_171 + x_178 + x_207 = 1
 cover_lg_79: y_79 + x_6 + x_77 + x_137 + x_141 + x_144 + x_151 + x_152
   + x_153 + x_154 + x_156 + x_177 + x_207 = 1
 cover_lg_80: y_80 + x_6 + x_137 + x_144 + x_151 + x_152 + x_153 + x_154
   + x_156 + x_177 + x_207 = 1
 cover_lg_81: y_81 + x_6 + x_24 + x_59 + x_92 + x_94 + x_98 + x_117 + x_136
   + x_137 + x_193 + x_207 = 1
 cover_lg_82: y_82 + x_6 + x_24 + x_40 + x_42 + x_59 + x_92 + x_94 + x_98
   + x_117 + x_136 + x_137 + x_193 = 1
 cover_lg_83: y_83 + x_6 + x_24 + x_40 + x_42 + x_50 + x_52 + x_59 + x_75
   + x_92 + x_104 + x_117 + x_124 + x_126 + x_193 + x_207 = 1
 cover_lg_84: y_84 + x_25 + x_26 + x_41 + x_42 + x_51 + x_52 + x_60 + x_61
   + x_74 + x_75 + x_105 + x_106 + x_116 + x_117 + x_125 + x_126 + x_192
   + x_193 = 1
 cover_lg_85: y_85 + x_116 + x_117 + x_176 + x_177 = 1
 cover_lg_86: y_86 + x_116 + x_117 + x_176 + x_177 = 1
 cover_lg_87: y_87 + x_117 + x_136 + x_193 = 1
 cover_lg_88: y_88 + x_117 + x_136 + x_193 = 1
 cover_lg_89: y_89 = 1
 cover_lg_90: y_90 + x_7 + x_94 + x_95 + x_96 + x_118 + x_121 + x_122
   + x_123 + x_124 + x_201 + x_208 = 1
 cover_lg_91: y_91 + x_7 + x_124 = 1
 cover_lg_92: y_92 + x_7 + x_124 = 1
 cover_lg_93: y_93 + x_7 + x_124 = 1
 cover_lg_94: y_94 + x_7 + x_52 + x_68 + x_75 = 1
 select_ac_0: x_0 + x_8 + x_9 <= 1
 select_ac_1: x_1 + x_10 + x_11 + x_31 + x_43 + x_44 + x_53 + x_54 + x_62
   + x_63 + x_76 + x_77 + x_81 + x_82 + x_87 + x_88 + x_93 + x_94 + x_99
   + x_107 + x_118 + x_127 + x_133 + x_140 + x_141 + x_145 + x_146 + x_152
   + x_153 + x_157 + x_160 + x_164 + x_165 + x_171 + x_173 + x_178 + x_180
   + x_184 + x_188 + x_190 + x_194 + x_195 + x_198 + x_201 + x_202 + x_203
   + x_208 + x_209 + x_211 + x_213 + x_214 + x_217 + x_221 <= 1
 select_ac_2: x_2 + x_12 + x_32 + x_33 + x_45 + x_55 + x_56 + x_64 + x_65
   + x_78 + x_79 + x_83 + x_84 + x_89 + x_95 + x_96 + x_100 + x_101 + x_108
   + x_109 + x_119 + x_128 + x_129 + x_134 + x_135 + x_142 + x_147 + x_148
   + x_158 + x_166 + x_167 + x_174 + x_181 + x_182 + x_185 + x_186 + x_204
   <= 1
 select_ac_3: x_3 + x_13 + x_14 + x_34 + x_35 + x_66 + x_67 <= 1
 select_ac_4: x_15 + x_16 + x_36 + x_46 + x_57 + x_68 + x_69 + x_80 + x_85
   + x_86 + x_90 + x_97 + x_98 + x_102 + x_110 + x_111 + x_120 + x_130
   + x_136 + x_137 + x_149 + x_154 + x_159 + x_161 + x_168 + x_172 + x_175
   + x_179 + x_183 + x_187 + x_189 + x_191 + x_196 + x_197 + x_205 + x_210
   + x_212 + x_215 + x_216 + x_218 <= 1
 select_ac_5: x_4 + x_17 + x_18 <= 1
 select_ac_6: x_5 + x_19 + x_20 + x_37 + x_38 + x_47 + x_48 + x_70 + x_71
   + x_112 + x_113 + x_121 + x_122 + x_131 + x_132 + x_138 + x_139 + x_143
   + x_144 + x_150 + x_151 + x_155 + x_156 + x_162 + x_163 + x_169 + x_170
   + x_176 + x_177 + x_199 + x_200 + x_219 + x_220 <= 1
 select_ac_7: x_21 + x_22 + x_114 + x_115 <= 1
 select_ac_8: x_6 + x_23 + x_24 + x_39 + x_40 + x_49 + x_50 + x_58 + x_59
   + x_72 + x_73 + x_91 + x_92 + x_103 + x_104 + x_123 + x_124 + x_206
   + x_207 <= 1
 select_ac_9: x_25 + x_26 + x_41 + x_42 + x_51 + x_52 + x_60 + x_61 + x_74
   + x_75 + x_105 + x_106 + x_116 + x_117 + x_125 + x_126 + x_192 + x_193
   <= 1
 select_ac_10: x_7 + x_27 + x_28 <= 1
 select_ac_11: x_29 + x_30 <= 1
Bounds
 y_0 <= 1
 y_1 <= 1
 y_2 <= 1
 y_3 <= 1
 y_4 <= 1
 y_5 <= 1
 y_6 <= 1
 y_7 <= 1
 y_8 <= 1
 y_9 <= 1
 y_10 <= 1
 y_11 <= 1
 y_12 <= 1
 y_13 <= 1
 y_14 <= 1
 y_15 <= 1
 y_16 <= 1
 y_17 <= 1
 y_18 <= 1
 y_19 <= 1
 y_20 <= 1
 y_21 <= 1
 y_22 <= 1
 y_23 <= 1
 y_24 <= 1
 y_25 <= 1
 y_26 <= 1
 y_27 <= 1
 y_28 <= 1
 y_29 <= 1
 y_30 <= 1
 y_31 <= 1
 y_32 <= 1
 y_33 <= 1
 y_34 <= 1
 y_35 <= 1
 y_36 <= 1
 y_37 <= 1
 y_38 <= 1
 y_39 <= 1
 y_40 <= 1
 y_41 <= 1
 y_42 <= 1
 y_43 <= 1
 y_44 <= 1
 y_45 <= 1
 y_46 <= 1
 y_47 <= 1
 y_48 <= 1
 y_49 <= 1
 y_50 <= 1
 y_51 <= 1
 y_52 <= 1
 y_53 <= 1
 y_54 <= 1
 y_55 <= 1
 y_56 <= 1
 y_57 <= 1
 y_58 <= 1
 y_59 <= 1
 y_60 <= 1
 y_61 <= 1
 y_62 <= 1
 y_63 <= 1
 y_64 <= 1
 y_65 <= 1
 y_66 <= 1
 y_67 <= 1
 y_68 <= 1
 y_69 <= 1
 y_70 <= 1
 y_71 <= 1
 y_72 <= 1
 y_73 <= 1
 y_74 <= 1
 y_75 <= 1
 y_76 <= 1
 y_77 <= 1
 y_78 <= 1
 y_79 <= 1
 y_80 <= 1
 y_81 <= 1
 y_82 <= 1
 y_83 <= 1
 y_84 <= 1
 y_85 <= 1
 y_86 <= 1
 y_87 <= 1
 y_88 <= 1
 y_89 <= 1
 y_90 <= 1
 y_91 <= 1
 y_92 <= 1
 y_93 <= 1
 y_94 <= 1
 x_0 <= 1
 x_1 <= 1
 x_2 <= 1
 x_3 <= 1
 x_4 <= 1
 x_5 <= 1
 x_6 <= 1
 x_7 <= 1
 x_8 <= 1
 x_9 <= 1
 x_10 <= 1
 x_11 <= 1
 x_12 <= 1
 x_13 <= 1
 x_14 <= 1
 x_15 <= 1
 x_16 <= 1
 x_17 <= 1
 x_18 <= 1
 x_19 <= 1
 x_20 <= 1
 x_21 <= 1
 x_22 <= 1
 x_23 <= 1
 x_24 <= 1
 x_25 <= 1
 x_26 <= 1
 x_27 <= 1
 x_28 <= 1
 x_29 <= 1
 x_30 <= 1
 x_31 <= 1
 x_32 <= 1
 x_33 <= 1
 x_34 <= 1
 x_35 <= 1
 x_36 <= 1
 x_37 <= 1
 x_38 <= 1
 x_39 <= 1
 x_40 <= 1
 x_41 <= 1
 x_42 <= 1
 x_43 <= 1
 x_44 <= 1
 x_45 <= 1
 x_46 <= 1
 x_47 <= 1
 x_48 <= 1
 x_49 <= 1
 x_50 <= 1
 x_51 <= 1
 x_52 <= 1
 x_53 <= 1
 x_54 <= 1
 x_55 <= 1
 x_56 <= 1
 x_57 <= 1
 x_58 <= 1
 x_59 <= 1
 x_60 <= 1
 x_61 <= 1
 x_62 <= 1
 x_63 <= 1
 x_64 <= 1
 x_65 <= 1
 x_66 <= 1
 x_67 <= 1
 x_68 <= 1
 x_69 <= 1
 x_70 <= 1
 x_71 <= 1
 x_72 <= 1
 x_73 <= 1
 x_74 <= 1
 x_75 <= 1
 x_76 <= 1
 x_77 <= 1
 x_78 <= 1
 x_79 <= 1
 x_80 <= 1
 x_81 <= 1
 x_82 <= 1
 x_83 <= 1
 x_84 <= 1
 x_85 <= 1
 x_86 <= 1
 x_87 <= 1
 x_88 <= 1
 x_89 <= 1
 x_90 <= 1
 x_91 <= 1
 x_92 <= 1
 x_93 <= 1
 x_94 <= 1
 x_95 <= 1
 x_96 <= 1
 x_97 <= 1
 x_98 <= 1
 x_99 <= 1
 x_100 <= 1
 x_101 <= 1
 x_102 <= 1
 x_103 <= 1
 x_104 <= 1
 x_105 <= 1
 x_106 <= 1
 x_107 <= 1
 x_108 <= 1
 x_109 <= 1
 x_110 <= 1
 x_111 <= 1
 x_112 <= 1
 x_113 <= 1
 x_114 <= 1
 x_115 <= 1
 x_116 <= 1
 x_117 <= 1
 x_118 <= 1
 x_119 <= 1
 x_120 <= 1
 x_121 <= 1
 x_122 <= 1
 x_123 <= 1
 x_124 <= 1
 x_125 <= 1
 x_126 <= 1
 x_127 <= 1
 x_128 <= 1
 x_129 <= 1
 x_130 <= 1
 x_131 <= 1
 x_132 <= 1
 x_133 <= 1
 x_134 <= 1
 x_135 <= 1
 x_136 <= 1
 x_137 <= 1
 x_138 <= 1
 x_139 <= 1
 x_140 <= 1
 x_141 <= 1
 x_142 <= 1
 x_143 <= 1
 x_144 <= 1
 x_145 <= 1
 x_146 <= 1
 x_147 <= 1
 x_148 <= 1
 x_149 <= 1
 x_150 <= 1
 x_151 <= 1
 x_152 <= 1
 x_153 <= 1
 x_154 <= 1
 x_155 <= 1
 x_156 <= 1
 x_157 <= 1
 x_158 <= 1
 x_159 <= 1
 x_160 <= 1
 x_161 <= 1
 x_162 <= 1
 x_163 <= 1
 x_164 <= 1
 x_165 <= 1
 x_166 <= 1
 x_167 <= 1
 x_168 <= 1
 x_169 <= 1
 x_170 <= 1
 x_171 <= 1
 x_172 <= 1
 x_173 <= 1
 x_174 <= 1
 x_175 <= 1
 x_176 <= 1
 x_177 <= 1
 x_178 <= 1
 x_179 <= 1
 x_180 <= 1
 x_181 <= 1
 x_182 <= 1
 x_183 <= 1
 x_184 <= 1
 x_185 <= 1
 x_186 <= 1
 x_187 <= 1
 x_188 <= 1
 x_189 <= 1
 x_190 <= 1
 x_191 <= 1
 x_192 <= 1
 x_193 <= 1
 x_194 <= 1
 x_195 <= 1
 x_196 <= 1
 x_197 <= 1
 x_198 <= 1
 x_199 <= 1
 x_200 <= 1
 x_201 <= 1
 x_202 <= 1
 x_203 <= 1
 x_204 <= 1
 x_205 <= 1
 x_206 <= 1
 x_207 <= 1
 x_208 <= 1
 x_209 <= 1
 x_210 <= 1
 x_211 <= 1
 x_212 <= 1
 x_213 <= 1
 x_214 <= 1
 x_215 <= 1
 x_216 <= 1
 x_217 <= 1
 x_218 <= 1
 x_219 <= 1
 x_220 <= 1
 x_221 <= 1
End
